n_res = 4;
rcap = [10, 11, 86, 90];
rtype = [1, 1, 2, 2];
n_tasks = 16;
modes = [ {1, 2, 3, 4, 5}, {6, 7, 8, 9, 10}, {11, 12, 13, 14, 15}, {16, 17, 18, 19, 20}, {21, 22, 23, 24, 25}, {26, 27, 28, 29, 30}, {31, 32, 33, 34, 35}, {36, 37, 38, 39, 40}, {41, 42, 43, 44, 45}, {46, 47, 48, 49, 50}, {51, 52, 53, 54, 55}, {56, 57, 58, 59, 60}, {61, 62, 63, 64, 65}, {66, 67, 68, 69, 70}, {71, 72, 73, 74, 75}, {76, 77, 78, 79, 80} ];
succ = [ {6, 12, 16}, {4, 5}, {5, 8, 11}, {7, 10, 13}, {6, 13, 14}, {15}, {8, 11}, {9, 16}, {12, 14}, {11, 12}, {14, 16}, {15}, {15}, {}, {}, {} ];
n_opt = 80;
dur = [6, 6, 7, 9, 9, 4, 5, 7, 8, 10, 1, 4, 5, 5, 10, 1, 2, 10, 10, 10, 1, 2, 3, 3, 7, 1, 5, 6, 6, 9, 7, 7, 7, 10, 10, 3, 4, 8, 8, 9, 2, 2, 3, 4, 8, 1, 4, 7, 9, 9, 5, 7, 7, 9, 10, 1, 2, 5, 7, 8, 1, 4, 6, 7, 8, 2, 9, 9, 9, 10, 3, 3, 4, 5, 6, 2, 2, 6, 10, 10];
rreq = [|  0,  2,  0,  1,  0,  6,  0,  5,  0,  5,  9,  9,  6,  6,  0,  0, 10, 10,  0,  0,  0,  8,  0,  7,  7,  0,  4,  0,  3,  0,  3,  0,  0,  3,  3,  0,  5,  2,  0,  0,  7,  0,  7,  0,  0,  7,  0,  6,  4,  0,  0,  8,  0,  8,  0,  6,  5,  3,  3,  0,  0,  3,  0,  3,  2,  0,  0,  0,  5,  1,  0,  7,  5,  3,  0,  0,  0,  6,  0,  5
        | 10,  0, 10,  0,  9,  0,  5,  0,  4,  0,  0,  0,  0,  0,  4,  8,  0,  0,  6,  7,  8,  0,  8,  0,  0,  6,  0,  5,  0,  4,  0,  3,  4,  0,  0,  7,  0,  0,  4,  3,  0,  9,  0,  6,  5,  0,  4,  0,  0,  3,  4,  0,  4,  0,  3,  0,  0,  0,  0,  4,  7,  0,  6,  0,  0,  6,  6,  5,  0,  0,  7,  0,  0,  0,  6,  8,  8,  0,  8,  0
        |  9,  9,  9,  9,  9,  8,  7,  7,  7,  6,  8,  7,  5,  6,  4,  8,  4,  3,  3,  2,  7,  6,  4,  5,  3,  6,  5,  4,  4,  2,  5,  5,  4,  3,  2,  6,  5,  5,  5,  4,  8,  8,  7,  7,  7,  2,  2,  2,  1,  1,  6,  5,  5,  4,  3,  7,  6,  5,  3,  3,  4,  4,  4,  3,  2,  9,  9,  8,  8,  8,  9,  9,  7,  6,  5,  7,  6,  4,  3,  2
        |  6,  6,  4,  4,  3,  9,  6,  5,  3,  3,  3,  3,  3,  2,  2,  7,  6,  6,  6,  6, 10, 10,  9,  9,  8,  4,  3,  3,  3,  3,  9,  9,  9,  8,  9,  5,  5,  4,  4,  3,  9,  8,  8,  8,  7,  8,  7,  7,  5,  5,  8,  7,  6,  5,  4,  4,  4,  3,  2,  2,  6,  6,  5,  5,  3,  6,  4,  5,  5,  3,  9,  9,  8,  6,  5,  6,  7,  5,  4,  4 |];
